c PicoSAT SAT Solver Version 936
c Copyright (c) 2006 - 2010 Armin Biere JKU Linz
c gcc -Wall -Wextra -DNDEBUG -O3 -fomit-frame-pointer -finline-limit=1000000
c
c using 2 as default phase
c
c parsing /home/necavit/workspace_li/sat-solver/sample_problems/vars-250-10.cnf
c parsed header 'p cnf 250 1063'
c initialized 250 variables
c found 1063 non trivial clauses
c
c random number generator seed 0
c 
c  seconds     variables   original    learned     agility
c         level        used      conflicts    limit          MB
c 
c s   0.0   0.0   250   0.0  1063     0     0     0   0.0   0.1 
c 
c initial reduction limit 531 clauses
c 
c +   0.0  25.1   250  89.2  1063   100   100   584  11.5   0.1 
c R   0.0  25.1   250  89.2  1063   102   102   584  11.7   0.1 
c +   0.0  19.6   250  96.0  1063   250   250   642  22.4   0.1 
c N   0.0  16.4   250  97.6  1063   403   403   642  27.0   0.2 
c +   0.0  15.9   250  98.0  1063   475   475   706  28.1   0.2 
c +   0.0  13.8   250  99.2  1063   812   454   776  29.0   0.2 
c N   0.0  12.5   250  99.2  1063  1208   451   776  28.3   0.2 
c +   0.0  12.3   250  99.2  1063  1317   560   853  28.7   0.2 
c +   0.0  11.5   250  99.6  1063  2074   455   938  30.1   0.2 
c +   0.0  11.0   250  99.6  1063  3209   640  1031  30.9   0.2 
c N   0.0  11.0   250  99.6  1063  3215   646  1031  30.7   0.2 
c +   0.0  11.0   250  99.6  1063  4911   776  1134  29.5   0.2 
c +   0.1  11.1   250  99.6  1063  7464  1039  1247  29.0   0.3 
c N   0.1  11.3   250  99.6  1063  8034   979  1247  28.2   0.2 
c +   0.1  11.8   250  99.6  1063 11293  1094  1371  29.2   0.3 
c +   0.2  11.8   250  99.6  1063 17036  1311  1508  31.0   0.3 
c N   0.2  11.8   250  99.6  1063 19250  1250  1508  30.2   0.3 
c +   0.3  11.5   250  99.6  1063 25650   811  1658  29.4   0.2 
c +   0.4  11.0   250  99.6  1063 38571  1192  1823  30.9   0.2 
c s   0.5  10.9   249  99.6  1049 41371   592  1823  30.7   0.2 
c 
c  seconds     variables   original    learned     agility
c         level        used      conflicts    limit          MB
c 
c N   0.5  10.9   249  99.6  1049 41473   694  1823  31.8   0.2 
c N   0.5  10.9   249  99.6  1049 41773   994  1823  31.2   0.2 
c N   0.5  10.9   249  99.6  1049 42576  1797  1823  31.7   0.3 
c N   0.5  11.0   249  99.6  1049 44581  1050  1823  31.9   0.2 
c N   0.6  11.0   249  99.6  1049 49390  1269  1823  30.3   0.3 
c 1   0.6  11.0   249  99.6  1049 53414  1621  1823  29.8   0.3 
c 
c  seconds     variables   original    learned     agility
c         level        used      conflicts    limit          MB
c 
s SATISFIABLE
v -1 -2 -3 -4 5 6 -7 8 9 10 -11 12 13 -14 -15 16 -17 18 -19 20 21 -22 -23 24
v -25 26 27 28 -29 -30 31 32 33 -34 -35 -36 37 38 39 40 -41 -42 -43 44 -45 46
v 47 -48 -49 50 -51 52 53 -54 55 -56 -57 -58 -59 -60 -61 62 -63 64 65 66 -67 68
v -69 -70 71 72 73 74 -75 -76 -77 78 -79 -80 -81 82 -83 84 85 86 87 -88 89 90
v -91 92 -93 94 -95 96 -97 98 99 100 101 -102 -103 104 -105 -106 107 -108 -109
v -110 -111 112 -113 -114 -115 -116 -117 118 119 -120 -121 -122 123 124 125
v -126 127 -128 -129 130 -131 -132 133 134 135 -136 -137 138 -139 -140 141 142
v -143 144 145 146 147 -148 149 -150 -151 -152 -153 -154 155 156 -157 -158 -159
v -160 -161 162 163 164 165 166 167 -168 -169 -170 171 -172 -173 174 -175 -176
v 177 -178 179 -180 181 182 -183 184 185 186 -187 188 189 -190 191 192 193 -194
v 195 196 197 198 199 200 -201 202 -203 204 -205 206 -207 208 -209 210 211 212
v 213 214 -215 216 217 218 -219 220 221 222 -223 -224 -225 -226 -227 -228 -229
v -230 231 232 233 -234 235 236 -237 238 239 240 241 -242 -243 -244 -245 -246
v -247 -248 249 250 0
c
c 1 iterations
c 2 restarts
c 53414 conflicts
c 0 adc conflicts
c 63416 decisions
c 1 fixed variables
c 670771 learned literals
c 28.3% deleted literals
c 3108777 propagations
c 99.6% variables used
c 0.6 seconds in library
c 5.0 megaprops/second
c 2 simplifications
c 69 reductions
c 6.4 MB recycled
c 0.4 MB maximally allocated
c 0.6 seconds total run time
Command exited with non-zero status 10
0.61
